
Gurobi 9.5.0 (win64) logging started Sat May 14 18:40:50 2022

Set parameter LogFile to value "../results/logs/log_soc-dolphins_3_1_2022_05_14_18_40.log"
Set parameter LazyConstraints to value 1

Gurobi 9.5.0 (win64) logging started Sat May 14 18:40:59 2022

Set parameter LogFile to value "../results/logs/log_soc-dolphins_3_1_2022_05_14_18_40.log"
Set parameter LazyConstraints to value 1
